; benchmark generated from python API
(set-info :status unknown)
(declare-fun s () Int)
(define-funs-rec ( ( T2_10 ((x!1 Int)) Int)
                   ( e2_10 ((x!1 Int)) Int)
                   ( f2_10 ((x!1 Int)) Int)
                   ( p2_10 ((x!1 Int)) Int)
                   ( T2_02 ((x!1 Int)) Int)
                   ( p2_02 ((x!1 Int)) Int))
                 ( (mod (+ ((_ e2_10 0) x!1) 1) 2)
                   (let ((a!1 ((_ f2_10 0) (+ ((_ e2_10 0) (- x!1 1)) 1))))
                     (ite (= x!1 0) 0 a!1))
                   (ite (= (mod ((_ p2_10 0) x!1) 2) 0)
                        x!1
                        ((_ f2_10 0) (+ x!1 1)))
                   (ite (= x!1 0) 0 (+ ((_ p2_10 0) (div x!1 2)) x!1))
                   (let ((a!1 (/ (- 1.0 (^ (- 1) ((_ p2_02 0) x!1))) 2.0)))
                     (to_int a!1))
                   (ite (= x!1 0) 0 (+ ((_ p2_02 0) (div x!1 2)) (mod x!1 2)))))
(assert
 (forall ((n Int) )(let ((?x426 ((_ T2_10 0) n)))
 (let (($x407 (= ?x426 n)))
 (let ((?x424 ((_ T2_02 0) n)))
 (let (($x430 (= ?x424 n)))
 (let (($x448 (and $x430 $x407)))
 (let (($x387 (< n s)))
 (let (($x449 (>= n 0)))
 (let (($x412 (and $x449 $x387)))
 (=> $x412 $x448))))))))))
 )
(assert
 (forall ((n Int) )(let ((?x426 ((_ T2_10 0) n)))
(let ((?x424 ((_ T2_02 0) n)))
(let (($x444 (= ?x424 ?x426)))
(let (($x449 (>= n 0)))
(=> $x449 $x444))))))
)
(check-sat)
